PROBLEM NAME: eil51_n9
KNAPSACK DATA TYPE: multiple strongly correlated
DIMENSION: 9
NUMBER OF ITEMS: 8
CAPACITY OF KNAPSACK: 2545
MIN SPEED: 0.1
MAX SPEED: 1
RENTING RATIO: 3.48
EDGE_WEIGHT_TYPE: CEIL_2D
NODE_COORD_SECTION	(INDEX, X, Y):
1	17	63
2	31	62
3	36	16
4	52	41
5	27	23
6	62	63
7	32	22
8	5	6
9	56	37
ITEMS SECTION	(INDEX, PROFIT, WEIGHT, ASSIGNED NODE NUMBER):
1	1128	928	2
2	990	790	6
3	973	773	4
4	882	682	9
5	852	652	3
6	688	488	7
7	442	242	5
8	311	111	8
